qe/outputs/qe/cbrdelay_obs_newl/T=6,eliminate=[I_0,I_1,I_2,I_3,I_4,I_5,L_2,L_3,L_4,L_5,C,B,lhs=L_1],pl=1.smt2
; benchmark generated from python API
(set-info :status unknown)
(declare-fun S_0 () Real)
(declare-fun S_2 () Real)
(declare-fun A_5 () Real)
(declare-fun L_1 () Real)
(declare-fun S_5 () Real)
(declare-fun L_0 () Real)
(declare-fun A_0 () Real)
(declare-fun S_4 () Real)
(declare-fun S_3 () Real)
(declare-fun A_4 () Real)
(declare-fun A_2 () Real)
(declare-fun A_1 () Real)
(declare-fun S_1 () Real)
(declare-fun A_3 () Real)
(assert
 (let (($x39 (>= L_0 0.0)))
 (let (($x4224 (<= (+ S_5 L_1 (* (- 1.0) A_4) (* (- (/ 1.0 2.0)) S_3) (* (/ 1.0 2.0) S_0)) 0.0)))
 (let ((?x423 (* (- 1.0) S_3)))
 (let ((?x1787 (* 2.0 S_5)))
 (let ((?x17758 (+ ?x1787 (* 2.0 L_1) (* (- 2.0) A_1) (* (- 2.0) A_5) (* 2.0 A_2) ?x423 S_0)))
 (let ((?x285 (* (- 1.0) L_1)))
 (let ((?x949 (+ L_0 ?x285)))
 (let (($x613 (<= 0.0 ?x949)))
 (let (($x24526 (<= (+ S_5 L_1 (* (- 1.0) A_1) (* (- 1.0) A_5) A_2 ?x423 S_1) 0.0)))
 (let (($x1238 (<= (+ (* (- 1.0) S_5) ?x285 A_4) 0.0)))
 (let (($x2342 (<= (+ S_5 (* (- (/ 1.0 3.0)) S_4) L_1 (* (- 1.0) A_4) (* (/ 1.0 3.0) S_0)) 0.0)))
 (let ((?x416 (* (- 1.0) S_2)))
 (let ((?x454 (* (- 1.0) A_5)))
 (let ((?x443 (* (- 1.0) A_1)))
 (let (($x41340 (or $x613 (<= (+ S_5 (* (- 1.0) S_4) L_1 ?x443 ?x454 A_2 S_2) 0.0))))
 (let (($x6477 (<= (+ S_5 (* (- (/ 1.0 2.0)) S_4) L_1 ?x443 ?x454 A_2 (* (/ 1.0 2.0) S_1)) 0.0)))
 (let (($x8948 (<= (+ S_5 (* (- (/ 1.0 3.0)) S_4) L_1 ?x443 ?x454 A_2 (* (/ 1.0 3.0) S_0)) 0.0)))
 (let (($x2021 (<= (+ (* (- 1.0) S_5) (* (- 1.0) A_0) L_0 (* 2.0 S_2)) 0.0)))
 (let (($x30068 (or $x1238 (<= (+ (* (- 1.0) S_5) (* 2.0 S_2) (* (- 1.0) S_1)) 0.0))))
 (let (($x40574 (or $x1238 (<= (+ (* (- 3.0) S_5) (* 4.0 S_3) (* (- 1.0) S_1)) 0.0))))
 (let (($x1838 (<= (+ (* (- 3.0) S_5) (* (- 1.0) A_0) L_0 (* 4.0 S_3)) 0.0)))
 (let (($x41387 (or $x1238 (<= (+ (* (- 4.0) S_5) (* 5.0 S_3) (* (- 1.0) S_0)) 0.0))))
 (let (($x33812 (or $x1238 (<= (+ (* (- (/ 2.0 3.0)) S_5) (* (/ 5.0 3.0) S_1) (* (- 1.0) S_0)) 0.0))))
 (let (($x2243 (<= (+ (* (- (/ 1.0 3.0)) S_5) (* (- 1.0) A_0) L_0 (* (/ 4.0 3.0) S_1)) 0.0)))
 (let (($x5136 (<= (+ S_5 (* (- (/ 1.0 2.0)) S_4) L_1 (* (- 1.0) A_4) (* (/ 1.0 2.0) S_1)) 0.0)))
 (let (($x2991 (<= (+ (* (- 1.0) A_0) L_0 (* (- (/ 1.0 2.0)) S_4) (* (/ 3.0 2.0) S_1)) 0.0)))
 (let (($x1292 (<= (+ (* (- 1.0) A_0) L_0 (* (- 2.0) S_4) (* 3.0 S_2)) 0.0)))
 (let (($x41146 (or $x1238 (<= (+ (* (- (/ 3.0 2.0)) S_5) (* (/ 5.0 2.0) S_2) (* (- 1.0) S_0)) 0.0))))
 (let (($x128 (>= S_1 S_0)))
 (let (($x131 (>= S_2 S_1)))
 (let (($x134 (>= S_3 S_2)))
 (let (($x137 (>= S_4 S_3)))
 (let (($x140 (>= S_5 S_4)))
 (let (($x143 (>= A_2 A_1)))
 (let (($x144 (>= A_3 A_2)))
 (let (($x145 (>= A_4 A_3)))
 (let (($x146 (>= A_5 A_4)))
 (and $x146 $x145 $x144 $x143 $x140 $x137 $x134 $x131 $x128 (<= (+ A_0 (* (- 1.0) L_0)) S_4) (not (<= (+ A_1 ?x285) S_4)) (or (not $x613) (= L_1 L_0)) (<= (+ (* (- 2.0) S_4) (* 3.0 S_2) (* (- 1.0) S_1)) 0.0) (<= (+ (* (- (/ 1.0 3.0)) S_4) (* (/ 1.0 3.0) S_0)) (- 5.0)) (or (<= (+ (* (- 1.0) S_5) S_3) (- 5.0)) $x1238) $x41146 (<= (+ (* (- 3.0) S_4) (* 4.0 S_2) (* (- 1.0) S_0)) 0.0) $x1292 (<= (+ (* (- 1.0) A_0) L_0 ?x423 (* 2.0 S_1)) 0.0) (<= (+ (* (- 2.0) S_3) (* 3.0 S_1) (* (- 1.0) S_0)) 0.0) $x2991 (<= (+ (* (- 1.0) S_4) (* 2.0 S_1) (* (- 1.0) S_0)) 0.0) (<= (+ (* (- (/ 1.0 2.0)) S_4) (* (/ 1.0 2.0) S_1)) (- 5.0)) $x5136 (<= (+ S_5 L_1 (* (- 1.0) A_4) ?x423 S_1) 0.0) (<= (+ S_5 (* (- 4.0) S_3) (* 3.0 S_1)) 0.0) (<= (+ S_4 (* (- 3.0) S_3) (* 2.0 S_1)) 0.0) (<= (+ ?x423 S_1) (- 5.0)) (<= (+ (* (/ 1.0 3.0) S_3) ?x416 (* (/ 2.0 3.0) S_0)) 0.0) (<= (+ S_5 (* (- 1.0) S_4) L_1 (* (- 1.0) A_4) S_2) 0.0) (or $x1238 (<= (+ (* (- 2.0) S_5) (* 3.0 S_3) ?x416) 0.0)) (or $x1238 (<= (+ (* (- (/ 1.0 3.0)) S_5) (* (/ 1.0 3.0) S_1)) (- 5.0))) (or $x1238 $x2243) (<= (+ S_5 (* (- 3.0) S_4) (* 2.0 S_2)) 0.0) (<= (+ S_5 (* (- (/ 5.0 3.0)) S_4) (* (/ 2.0 3.0) S_0)) 0.0) (<= (+ (* (/ 2.0 5.0) S_5) ?x423 (* (/ 3.0 5.0) S_0)) 0.0) (<= (+ S_4 (* (- 4.0) S_2) (* 3.0 S_0)) 0.0) $x33812 (<= (+ S_5 (* (- 2.0) S_4) S_1) 0.0) $x41387 (or $x1238 $x1838) $x40574 $x30068 (or $x1238 $x2021) (<= (+ (* (- (/ 1.0 2.0)) S_3) (* (/ 1.0 2.0) S_0)) (- 5.0)) (or $x613 $x8948) (<= (+ (* (/ 1.0 5.0) S_5) ?x416 (* (/ 4.0 5.0) S_0)) 0.0) (or $x613 $x6477) $x41340 (<= (+ (* (/ 1.0 2.0) S_4) ?x423 (* (/ 1.0 2.0) S_0)) 0.0) (or (<= (+ (* (- (/ 1.0 2.0)) S_5) (* (/ 1.0 2.0) S_2)) (- 5.0)) $x1238) (or $x613 (<= (+ S_5 L_1 ?x443 ?x454 A_2 ?x416 S_0) 0.0)) $x2342 (or $x1238 (<= (+ (* (- (/ 1.0 4.0)) S_5) (* (/ 1.0 4.0) S_0)) (- 5.0))) (or $x613 $x24526) (<= (+ S_5 L_1 (* (- 1.0) A_4) ?x416 S_0) 0.0) (or $x613 (<= ?x17758 0.0)) $x4224 $x39 (<= (+ (* (- 1.0) S_4) S_2) (- 5.0)) (<= (+ (* (- 1.0) A_0) L_0 S_0) 0.0) (<= (+ S_5 L_1 ?x454) 0.0) (<= (+ ?x416 S_0) (- 5.0)))))))))))))))))))))))))))))))))))))))))
(check-sat)
